(set-info :smt-lib-version 2.6)
(set-logic QF_BV)
(set-info :source |
 Patrice Godefroid, SAGE (systematic dynamic test generation)
 For more information: http://research.microsoft.com/en-us/um/people/pg/public_psfiles/ndss2008.pdf
|)
(set-info :category "industrial")
(set-info :status unsat)
(declare-fun T1_590 () (_ BitVec 8))
(declare-fun T1_591 () (_ BitVec 8))
(declare-fun T1_592 () (_ BitVec 8))
(declare-fun T1_593 () (_ BitVec 8))
(declare-fun T1_594 () (_ BitVec 8))
(declare-fun T1_595 () (_ BitVec 8))
(declare-fun T1_596 () (_ BitVec 8))
(declare-fun T1_597 () (_ BitVec 8))
(declare-fun T1_598 () (_ BitVec 8))
(declare-fun T1_599 () (_ BitVec 8))
(assert (let ((?v_3 ((_ zero_extend 24) (_ bv1 8))) (?v_2 ((_ zero_extend 24) (_ bv2 8))) (?v_0 (bvsub ((_ zero_extend 24) T1_590) (_ bv48 32)))) (let ((?v_1 (bvsub (bvadd ((_ zero_extend 24) T1_591) (bvshl (bvadd ?v_0 (bvshl ?v_0 ?v_2)) ?v_3)) (_ bv48 32)))) (let ((?v_4 (bvsub (bvadd ((_ zero_extend 24) T1_592) (bvshl (bvadd ?v_1 (bvshl ?v_1 ?v_2)) ?v_3)) (_ bv48 32)))) (let ((?v_5 (bvsub (bvadd ((_ zero_extend 24) T1_593) (bvshl (bvadd ?v_4 (bvshl ?v_4 ?v_2)) ?v_3)) (_ bv48 32)))) (let ((?v_6 (bvsub (bvadd ((_ zero_extend 24) T1_594) (bvshl (bvadd ?v_5 (bvshl ?v_5 ?v_2)) ?v_3)) (_ bv48 32)))) (let ((?v_7 (bvsub (bvadd ((_ zero_extend 24) T1_595) (bvshl (bvadd ?v_6 (bvshl ?v_6 ?v_2)) ?v_3)) (_ bv48 32)))) (let ((?v_8 (bvsub (bvadd ((_ zero_extend 24) T1_596) (bvshl (bvadd ?v_7 (bvshl ?v_7 ?v_2)) ?v_3)) (_ bv48 32)))) (let ((?v_9 (bvsub (bvadd ((_ zero_extend 24) T1_597) (bvshl (bvadd ?v_8 (bvshl ?v_8 ?v_2)) ?v_3)) (_ bv48 32)))) (let ((?v_10 (bvsub (bvadd ((_ zero_extend 24) T1_598) (bvshl (bvadd ?v_9 (bvshl ?v_9 ?v_2)) ?v_3)) (_ bv48 32)))) (and true (bvult (bvsub (bvadd ((_ zero_extend 24) T1_599) (bvshl (bvadd ?v_10 (bvshl ?v_10 ?v_2)) ?v_3)) (_ bv48 32)) (_ bv0 32)))))))))))))
(check-sat)
(exit)
